db/data/263312921522169283291241928762173197906.z3.out
sat
-------------------
625.728582355
